************************************************************************
file with basedata            : 
initial value random generator: 
************************************************************************
projects                      :  1
jobs (incl. supersource/sink ):  82
horizon                       :  400
RESOURCES
  - renewable                 :  4   R
  - nonrenewable              :  0   N
  - doubly constrained        :  0   D
************************************************************************
PROJECT INFORMATION:
pronr.  #jobs rel.date duedate tardcost  MPM-Time
	1     80      0       10        1       10
************************************************************************
PRECEDENCE RELATIONS:
jobnr.    #modes  #successors   successors
   1        1         15           2   3   4   5   6   7   8   9  10  11  12  13  14  15  16 
   2        1          2          17  18 
   3        1          1          19 
   4        1          1          20 
   5        1          1          21 
   6        1          1          22 
   7        1          1          23 
   8        1          1          24 
   9        1          1          25 
  10        1          4          26  27  28  29 
  11        1          3          37  38  39 
  12        1          7          42  43  44  45  46  47  48 
  13        1          3          55  56  57 
  14        1          7          59  60  61  62  63  64  65 
  15        1          5          71  72  73  74  75 
  16        1          2          79  80 
  17        1          4          26  27  28  29 
  18        1          1          82 
  19        1          4          26  27  28  29 
  20        1          4          26  27  28  29 
  21        1          3          32  33  34 
  22        1          7          42  43  44  45  46  47  48 
  23        1          7          42  43  44  45  46  47  48 
  24        1          7          42  43  44  45  46  47  48 
  25        1          7          42  43  44  45  46  47  48 
  26        1          1          30 
  27        1          1          31 
  28        1          3          37  38  39 
  29        1          1          82 
  30        1          3          32  33  34 
  31        1          3          37  38  39 
  32        1          1          35 
  33        1          1          36 
  34        1          1          82 
  35        1          3          37  38  39 
  36        1          3          37  38  39 
  37        1          1          40 
  38        1          1          41 
  39        1          1          82 
  40        1          7          42  43  44  45  46  47  48 
  41        1          7          42  43  44  45  46  47  48 
  42        1          1          49 
  43        1          1          50 
  44        1          1          51 
  45        1          1          52 
  46        1          1          53 
  47        1          1          54 
  48        1          1          82 
  49        1          3          55  56  57 
  50        1          3          55  56  57 
  51        1          3          55  56  57 
  52        1          7          59  60  61  62  63  64  65 
  53        1          7          59  60  61  62  63  64  65 
  54        1          7          59  60  61  62  63  64  65 
  55        1          1          58 
  56        1          7          59  60  61  62  63  64  65 
  57        1          1          82 
  58        1          7          59  60  61  62  63  64  65 
  59        1          1          66 
  60        1          1          67 
  61        1          1          68 
  62        1          1          69 
  63        1          1          70 
  64        1          5          71  72  73  74  75 
  65        1          1          82 
  66        1          5          71  72  73  74  75 
  67        1          5          71  72  73  74  75 
  68        1          5          71  72  73  74  75 
  69        1          2          79  80 
  70        1          2          79  80 
  71        1          1          76 
  72        1          1          77 
  73        1          1          78 
  74        1          2          79  80 
  75        1          1          82 
  76        1          2          79  80 
  77        1          2          79  80 
  78        1          1          82 
  79        1          1          81 
  80        1          1          82 
  81        1          1          82 
  82        1          0         
************************************************************************
REQUESTS/DURATIONS:
jobnr. mode duration  R 1  R 2  R 3  R 4
------------------------------------------------------------------------
  1      1     0       0    0    0    0
  2      1     2       0    9    7    0
  3      1     9       9    7    0    9
  4      1    10       0    2    0    0
  5      1     4       2    0    3    2
  6      1    10      10    0    0    9
  7      1     3       0    0    0    0
  8      1     7       5    0    0    0
  9      1     4       0    0    0    0
 10      1     2       1    0    2    0
 11      1     3       8    0    6    0
 12      1     2       5    0    4    9
 13      1     7       0    0    6    0
 14      1     3       0    2    0    2
 15      1     2       4    1    0    0
 16      1     9       0    0    2    0
 17      1     2       0    1    0    0
 18      1     6       0    6    8    5
 19      1     7       4    4    6    1
 20      1     8       6    3   10    0
 21      1     2       0    2    4    0
 22      1     5       0    0    0    5
 23      1     4       0    8    0    0
 24      1     5      10    1    1   10
 25      1     4      10    0    0    0
 26      1     3       8    1    0   10
 27      1     4       0    0    0    0
 28      1     3       9    0    0    1
 29      1     8       7    9    0    0
 30      1     3       0    0    0    7
 31      1     5       4    7    0    5
 32      1     8       0    7    8    7
 33      1     3       0   10    0    5
 34      1     4       1    3    5    5
 35      1     6       4    7    5    0
 36      1     1       0    8    0    7
 37      1     6       4    0    7    0
 38      1    10       2    0    0    9
 39      1    10       7    0    0    0
 40      1     2       4    6    0    7
 41      1     9       2    0    0    2
 42      1     8       4    7    3    8
 43      1     6       0    6    0    3
 44      1     8       8    7    0    0
 45      1     6       0    1    0    0
 46      1     2       9    0    0    0
 47      1     4       0    1    3    0
 48      1     9       8    2    8    0
 49      1     9       2    8    0    1
 50      1     6       4    0    0    9
 51      1     8       0    0    4    0
 52      1     4       0    0    0    4
 53      1     4       0    7    0    1
 54      1    10       2    0    0    3
 55      1     2       0    0    0    6
 56      1     6       8    0    0    0
 57      1     9       0    0    5    0
 58      1     5       6    0    5    0
 59      1     7       4    9    9   10
 60      1     1       0    0    0    0
 61      1     6       0    0    4    0
 62      1    10       6    0    4    3
 63      1     4       0    7    0   10
 64      1     8       9    0    9    8
 65      1     9       9    4    4    6
 66      1     9       0    0    8   10
 67      1     7       0    0    0    3
 68      1     2       0    0    0    7
 69      1     9       0    0    8    9
 70      1     4       2    3    0    3
 71      1     3       7    0    3    0
 72      1     4       0    0    0    0
 73      1     7       0    0    0    0
 74      1     9       3    5    0    0
 75      1     9       5    0    0    8
 76      1     1       0    5   10    0
 77      1     6       3    0    4    3
 78      1     9       0    6    1    8
 79      1     5       0    5    0    4
 80      1     3       9    0    0    0
 81      1     3       0    8    1    9
 82      1     0       0    0    0    0
************************************************************************
RESOURCEAVAILABILITIES:
  R 1  R 2  R 3  R 4
   12   15   14   10
************************************************************************
